Version identifier: 20.1.0.0 | 2020-11-10 | 9bedb6d68
Tried aggregator 2 times.
MIP Presolve eliminated 902 rows and 456 columns.
MIP Presolve modified 2406 coefficients.
Aggregator did 114 substitutions.
Reduced MIP has 1393 rows, 1095 columns, and 4573 nonzeros.
Reduced MIP has 220 binaries, 875 generals, 0 SOSs, and 0 indicators.
Presolve time = 0.01 sec. (5.61 ticks)
Found incumbent of value 2042.000000 after 0.03 sec. (11.46 ticks)
Probing fixed 30 vars, tightened 356 bounds.
Probing time = 0.00 sec. (0.89 ticks)
Tried aggregator 2 times.
Detecting symmetries...
MIP Presolve eliminated 581 rows and 30 columns.
MIP Presolve modified 109 coefficients.
Aggregator did 4 substitutions.
Reduced MIP has 808 rows, 1061 columns, and 2646 nonzeros.
Reduced MIP has 312 binaries, 749 generals, 0 SOSs, and 0 indicators.
Presolve time = 0.01 sec. (3.59 ticks)
Probing time = 0.00 sec. (0.20 ticks)
Clique table members: 5.
MIP emphasis: balance optimality and feasibility.
MIP search method: dynamic search.
Parallel mode: deterministic, using up to 24 threads.
Root relaxation solution time = 0.01 sec. (2.09 ticks)

        Nodes                                         Cuts/
   Node  Left     Objective  IInf  Best Integer    Best Bound    ItCnt     Gap

*     0+    0                         2042.0000        0.0000           100.00%
      0     0        0.0000    51     2042.0000        0.0000      249  100.00%
*     0+    0                           12.0000        0.0000           100.00%
      0     0        0.0000    69       12.0000     Cuts: 136      341  100.00%
      0     0        0.0000    29       12.0000      Cuts: 43      569  100.00%
      0     0        0.0000    23       12.0000      Cuts: 62      673  100.00%
      0     0        0.0000    29       12.0000       Cuts: 5      682  100.00%
*     0+    0                            9.0000        0.0000           100.00%
      0     0        cutoff              9.0000        9.0000      682    0.00%
Elapsed time = 1.11 sec. (93.31 ticks, tree = 0.01 MB, solutions = 3)

Implied bound cuts applied:  57
Flow cuts applied:  1
Mixed integer rounding cuts applied:  5
Zero-half cuts applied:  37
Lift and project cuts applied:  8
Gomory fractional cuts applied:  12

Root node processing (before b&c):
  Real time             =    1.11 sec. (93.39 ticks)
Parallel b&c, 24 threads:
  Real time             =    0.00 sec. (0.00 ticks)
  Sync time (average)   =    0.00 sec.
  Wait time (average)   =    0.00 sec.
                          ------------
Total (root+branch&cut) =    1.11 sec. (93.39 ticks)

Solution status = Optimal
Solution LB = 9
Solution UB = 9
Runtime = 1.11906 seconds
	Command being timed: "/home/min/git_repos/CS598MEBProject/CNT-ILP/build/cnt -s 2 ./output/k8_n15/simC_c1_k8_n15_u2_s1_del04.input-left.cnp"
	User time (seconds): 18.26
	System time (seconds): 0.10
	Percent of CPU this job got: 1585%
	Elapsed (wall clock) time (h:mm:ss or m:ss): 0:01.15
	Average shared text size (kbytes): 0
	Average unshared data size (kbytes): 0
	Average stack size (kbytes): 0
	Average total size (kbytes): 0
	Maximum resident set size (kbytes): 71716
	Average resident set size (kbytes): 0
	Major (requiring I/O) page faults: 0
	Minor (reclaiming a frame) page faults: 20962
	Voluntary context switches: 4543
	Involuntary context switches: 2422
	Swaps: 0
	File system inputs: 0
	File system outputs: 16
	Socket messages sent: 0
	Socket messages received: 0
	Signals delivered: 0
	Page size (bytes): 4096
	Exit status: 0
